30
154
8
55
75
15
10
50
15
5
77
0 1
0 8
0 10
0 16
0 20
1 2
1 3
1 4
1 5
1 9
1 10
1 11
1 15
1 17
1 21
1 22
1 26
2 7
2 8
2 13
2 16
2 24
2 26
2 27
2 28
2 29
3 5
3 6
3 7
3 8
3 10
3 15
3 18
3 19
3 21
3 22
3 24
3 28
4 5
4 7
4 11
4 16
4 18
4 25
4 27
4 28
4 29
5 7
5 8
5 10
5 12
5 17
5 19
5 20
5 24
5 25
5 26
5 28
5 29
6 16
6 17
6 18
6 19
6 23
7 12
7 13
7 16
7 17
7 24
7 26
7 29
8 11
8 15
8 18
8 19
8 23
8 26
8 28
8 29
9 12
9 17
9 19
9 20
9 21
9 23
9 29
10 12
10 14
10 17
10 19
10 23
10 24
10 29
11 16
11 18
11 20
11 23
11 27
11 28
11 29
12 13
12 15
12 17
12 25
13 14
13 16
13 19
13 21
13 25
13 26
13 29
14 15
14 18
14 19
14 21
14 22
14 24
14 25
14 26
15 17
15 18
15 20
15 23
15 25
16 18
16 23
16 24
16 29
17 21
17 22
17 27
17 28
18 21
19 22
19 25
19 27
20 24
20 25
20 28
20 29
21 22
21 24
21 25
22 23
22 24
22 28
23 26
23 27
23 28
24 25
24 26
26 28
27 28
28 29
22 19 8 3
21 10 24 7
5 4 23 18
13 29 12 15
14 27 20 11
26 1 25 17
28 6 9 0
16 2
